(declare-const v0 Bool)
(declare-const v1 Bool)
(declare-const v2 Bool)
(declare-const v3 Bool)
(declare-const v4 Bool)
(assert (edge (not v0) v1))
(assert (edge (or v3 (not v2)) (not v4)))
(assert (edge (or v0 v3) (or v2 (not v4))))
(assert (edge (or v1 (not v0)) (not v2)))
(assert (edge v2 true))
(assert (not (edge (or (not v1) (not v3)) v2)))